clingo version 4.5.4
Reading from coloring.lp4
Solving...
Answer: 1
color(belgium,red) color(netherlands,blue) color(france,white) color(luxembourg,red) color(germany,green) color(denmark,red)
SATISFIABLE

Models       : 1+    
Calls        : 1
Time         : 0.002s (Solving: 0.00s 1st Model: 0.00s Unsat: 0.00s)
CPU Time     : 0.000s
